proyfinal/src/viki/013/experimentInOfficeAgust.take6.output/9e895124-68bb-4ee3-a7e4-4b54a9022eba.als.dat
{'cnf.clauses': '118081',
 'cnf.totvars': '69608',
 'conflict literals': '1071',
 'conflicts': '143',
 'decisions': '4042',
 'memused.mb': '14.52',
 'outcome': 'UNSAT',
 'propagations': '211480',
 'restarts': '2',
 'solver.msecs': 31,
 'task.msecs': 71}
