proyfinal/src/viki/013/experimentInOfficeAgust.take6.output/9e895124-68bb-4ee3-a7e4-4b54a9022eba.als.out
Reading from standard input... Use '--help' for help.
============================[ Problem Statistics ]=============================
|                                                                             |
|  Number of variables:         69608                                         |
|  Number of clauses:          118081                                         |
|  Parse time:                   0.02 s                                       |
|                                                                             |
============================[ Search Statistics ]==============================
| Conflicts |          ORIGINAL         |          LEARNT          | Progress |
|           |    Vars  Clauses Literals |    Limit  Clauses Lit/Cl |          |
===============================================================================
|       100 |   56478    81104   200626 |    29738       94      8 | 18.863 % |
===============================================================================
restarts              : 2
conflicts             : 143            (4594 /sec)
decisions             : 4042           (0.00 % random) (129851 /sec)
propagations          : 211480         (6793883 /sec)
conflict literals     : 1071           (23.77 % deleted)
Memory used           : 14.52 MB
CPU time              : 0.031128 s

UNSATISFIABLE
